(set-logic QF_LIA)
(set-info :ran/ran2.smt2)
(set-info :smt-lib-version 2.0)
(declare-fun x1 () Int)
(declare-fun x2 () Int)
(declare-fun x3 () Int)
(declare-fun x4 () Int)
(declare-fun x5 () Int)
(assert (<= (+ (* 10 x1) (* (- 10) x2) (* (- 7) x3) (* (- 8) x4) (* 9 x5) ) 24))
(assert (<= (+ (* (- 1) x1) (* (- 2) x2) (* 0 x3) (* (- 4) x4) (* (- 6) x5) ) (- 182)))
(assert (<= (+ (* 6 x1) (* (- 1) x2) (* 5 x3) (* (- 7) x4) (* (- 9) x5) ) 331))
(assert (<= (+ (* 3 x1) (* 2 x2) (* (- 6) x3) (* 4 x4) (* (- 8) x5) ) 413))
(assert (<= (+ (* (- 9) x1) (* (- 6) x2) (* (- 5) x3) (* (- 3) x4) (* 7 x5) ) (- 232)))
(assert (<= (+ (* (- 6) x1) (* 4 x2) (* 5 x3) (* (- 2) x4) (* 7 x5) ) (- 352)))
(assert (<= (+ (* 6 x1) (* (- 7) x2) (* 7 x3) (* (- 7) x4) (* (- 1) x5) ) 292))
(assert (<= (+ (* 3 x1) (* (- 8) x2) (* (- 2) x3) (* (- 2) x4) (* (- 5) x5) ) (- 395)))
(assert (<= (+ (* (- 8) x1) (* 9 x2) (* 10 x3) (* (- 3) x4) (* 2 x5) ) (- 173)))
(assert (<= (+ (* (- 5) x1) (* 1 x2) (* (- 6) x3) (* 0 x4) (* 6 x5) ) 294))
(assert (<= (+ (* 1 x1) (* 0 x2) (* 0 x3) (* 0 x4) (* 0 x5) ) 446))
(assert (<= (+ (* (- 1) x1) (* 0 x2) (* 0 x3) (* 0 x4) (* 0 x5) ) 446))
(assert (<= (+ (* 0 x1) (* 1 x2) (* 0 x3) (* 0 x4) (* 0 x5) ) 446))
(assert (<= (+ (* 0 x1) (* (- 1) x2) (* 0 x3) (* 0 x4) (* 0 x5) ) 446))
(assert (<= (+ (* 0 x1) (* 0 x2) (* 1 x3) (* 0 x4) (* 0 x5) ) 446))
(assert (<= (+ (* 0 x1) (* 0 x2) (* (- 1) x3) (* 0 x4) (* 0 x5) ) 446))
(assert (<= (+ (* 0 x1) (* 0 x2) (* 0 x3) (* 1 x4) (* 0 x5) ) 446))
(assert (<= (+ (* 0 x1) (* 0 x2) (* 0 x3) (* (- 1) x4) (* 0 x5) ) 446))
(assert (<= (+ (* 0 x1) (* 0 x2) (* 0 x3) (* 0 x4) (* 1 x5) ) 446))
(assert (<= (+ (* 0 x1) (* 0 x2) (* 0 x3) (* 0 x4) (* (- 1) x5) ) 446))
